webassembly/ejemplos_dzn/13/folder13_json_78.dzn
TERM = { '.', 's(2)', 's(5)', 's(4)', 'in_1', 'local_0', 'in_2', 'in_3', 's(6)', 's(1)', 's(0)', 's(7)', 's(3)', 'in_0'};
null = '.';
s = 13;
n = 9;
ndeps = 3;
max_registers_sz = 4;
NR = 1;
registers = [|'local_0', 's(7)'|];
dependencies = [|'i32.load8_u_2', 'i32.store8_10', |'i32.load8_s_4', 'i32.store8_10', |'i32.load8_s_5', 'i32.store8_10'|];
GET_ENUM = { GET1, GET2, GET3, GET4, GET5};
SET_ENUM = { SET1, SET2, SET3, SET4, SET5};
TEE_ENUM = { TEE1, TEE2, TEE3, TEE4, TEE5};
N = 9;
OP = { 'i32.const_0', 'i32.add_0', 'i32.add_1', 'i32.add_2', 'i32.load8_u_2', 'i32.load8_s_4', 'i32.load8_s_5', 'i32.add_3', 'i32.store8_10' };
in_ops = [0, 2, 2, 2, 1, 1, 1, 2, 2 ];
out_ops = [1, 1, 1, 1, 1, 1, 1, 1, 0 ];
in1 = ['.', 's(7)', 'in_0', 's(0)', 's(1)', 'local_0', 's(3)', 's(7)', 's(5)' ];
in2 = ['.', 'in_3', 'in_1', 'in_2', '.', '.', '.', 's(4)', 's(2)' ];
in3 = ['.', '.', '.', '.', '.', '.', '.', '.', '.' ];
out1 = ['s(7)', 's(6)', 's(0)', 's(1)', 's(2)', 's(3)', 's(4)', 's(5)', '.' ];
out2 = ['.', '.', '.', '.', '.', '.', '.', '.', '.' ];
out3 = ['.', '.', '.', '.', '.', '.', '.', '.', '.' ];
comm = [false, true, true, true, false, false, false, true, false ];
gas = [1, 1, 1, 1, 1, 1, 1, 1, 1 ];
sz = [1, 1, 1, 1, 1, 1, 1, 1, 1 ];
stor = [false, false, false, false, false, false, false, false, true ];
lb = [ 1, 1, 1, 1, 1, 1, 1, 1, 1 ];
ub = [ 13, 13, 13, 13, 13, 13, 13, 13, 13 ];
startstack = [ 'in_0', 'in_1', 'in_2', 'in_3', null, null, null, null, null ];
endstack = [ 's(6)', null, null, null, null, null, null, null, null ];
