webassembly/ejemplos_results/13/folder13_json_78.txt
value = 13;
fgas = [1, 1, 1, 1, 1, 1, 2, 1, 1, 1, 1, 1, 1];
fsize = [1, 1, 1, 1, 1, 1, 1, 1, 1, 1, 1, 1, 1];
states = 
[|    in_0,    in_1, in_2, in_3, '.', '.', '.', '.', '.'
 |  's(0)',    in_2, in_3,  '.', '.', '.', '.', '.', '.'
 |  's(1)', local_0,  '.',  '.', '.', '.', '.', '.', '.'
 |  's(2)', local_0,  '.',  '.', '.', '.', '.', '.', '.'
 | local_0,     '.',  '.',  '.', '.', '.', '.', '.', '.'
 |  's(3)',     '.',  '.',  '.', '.', '.', '.', '.', '.'
 |  's(7)',  's(3)',  '.',  '.', '.', '.', '.', '.', '.'
 |  's(3)',     '.',  '.',  '.', '.', '.', '.', '.', '.'
 |  's(4)',     '.',  '.',  '.', '.', '.', '.', '.', '.'
 |  's(7)',  's(4)',  '.',  '.', '.', '.', '.', '.', '.'
 |  's(5)',  's(2)',  '.',  '.', '.', '.', '.', '.', '.'
 |  's(7)',    in_3,  '.',  '.', '.', '.', '.', '.', '.'
 |  's(7)',    in_3,  '.',  '.', '.', '.', '.', '.', '.'
 |  's(6)',     '.',  '.',  '.', '.', '.', '.', '.', '.'
 |];
register_states = 
[| local_0, '.', '.', '.', '.'
 | local_0, '.', '.', '.', '.'
 | local_0, '.', '.', '.', '.'
 | local_0, '.', '.', '.', '.'
 |  's(2)', '.', '.', '.', '.'
 |  's(2)', '.', '.', '.', '.'
 |  's(2)', '.', '.', '.', '.'
 |  's(2)', '.', '.', '.', '.'
 |  's(2)', '.', '.', '.', '.'
 |  's(2)', '.', '.', '.', '.'
 |  's(2)', '.', '.', '.', '.'
 |  's(2)', '.', '.', '.', '.'
 |  's(7)', '.', '.', '.', '.'
 |  's(7)', '.', '.', '.', '.'
 |];
program = [O('i32.add_1'), O('i32.add_2'), O('i32.load8_u_2'), S(SET1), O('i32.load8_s_4'), O('i32.const_0'), POP, O('i32.load8_s_5'), O('i32.const_0'), O('i32.add_3'), O('i32.store8_10'), TEE(TEE1), O('i32.add_0')];
% time elapsed: 0.36 s
----------
value = 12;
fgas = [1, 1, 1, 1, 1, 1, 1, 1, 1, 1, 1, 1, 0];
fsize = [1, 1, 1, 1, 1, 1, 1, 1, 1, 1, 1, 1, 1];
states = 
[|    in_0,    in_1, in_2, in_3, '.', '.', '.', '.', '.'
 |    in_0,    in_1, in_2, in_3, '.', '.', '.', '.', '.'
 |  's(0)',    in_2, in_3,  '.', '.', '.', '.', '.', '.'
 |  's(1)', local_0,  '.',  '.', '.', '.', '.', '.', '.'
 |  's(2)', local_0,  '.',  '.', '.', '.', '.', '.', '.'
 | local_0,     '.',  '.',  '.', '.', '.', '.', '.', '.'
 |  's(3)',     '.',  '.',  '.', '.', '.', '.', '.', '.'
 |  's(4)',     '.',  '.',  '.', '.', '.', '.', '.', '.'
 |  's(7)',  's(4)',  '.',  '.', '.', '.', '.', '.', '.'
 |  's(5)',  's(2)',  '.',  '.', '.', '.', '.', '.', '.'
 |  's(7)',    in_3,  '.',  '.', '.', '.', '.', '.', '.'
 |  's(7)',    in_3,  '.',  '.', '.', '.', '.', '.', '.'
 |  's(6)',     '.',  '.',  '.', '.', '.', '.', '.', '.'
 |  's(6)',     '.',  '.',  '.', '.', '.', '.', '.', '.'
 |];
register_states = 
[| local_0, '.', '.', '.', '.'
 |    in_0, '.', '.', '.', '.'
 |    in_0, '.', '.', '.', '.'
 |    in_0, '.', '.', '.', '.'
 |    in_0, '.', '.', '.', '.'
 |  's(2)', '.', '.', '.', '.'
 |  's(2)', '.', '.', '.', '.'
 |  's(2)', '.', '.', '.', '.'
 |  's(2)', '.', '.', '.', '.'
 |  's(2)', '.', '.', '.', '.'
 |  's(2)', '.', '.', '.', '.'
 |  's(7)', '.', '.', '.', '.'
 |  's(7)', '.', '.', '.', '.'
 |  's(7)', '.', '.', '.', '.'
 |];
program = [TEE(TEE1), O('i32.add_1'), O('i32.add_2'), O('i32.load8_u_2'), S(SET1), O('i32.load8_s_4'), O('i32.load8_s_5'), O('i32.const_0'), O('i32.add_3'), O('i32.store8_10'), TEE(TEE1), O('i32.add_0'), NOP];
% time elapsed: 0.38 s
----------
value = 11;
fgas = [1, 1, 1, 2, 1, 1, 1, 1, 1, 1, 1, 0, 0];
fsize = [1, 1, 1, 1, 1, 1, 1, 1, 1, 1, 1, 1, 1];
states = 
[|    in_0,    in_1, in_2, in_3, '.', '.', '.', '.', '.'
 |  's(0)',    in_2, in_3,  '.', '.', '.', '.', '.', '.'
 |  's(1)', local_0,  '.',  '.', '.', '.', '.', '.', '.'
 |  's(2)', local_0,  '.',  '.', '.', '.', '.', '.', '.'
 | local_0,     '.',  '.',  '.', '.', '.', '.', '.', '.'
 |  's(3)',     '.',  '.',  '.', '.', '.', '.', '.', '.'
 |  's(4)',     '.',  '.',  '.', '.', '.', '.', '.', '.'
 |  's(7)',  's(4)',  '.',  '.', '.', '.', '.', '.', '.'
 |  's(5)',  's(2)',  '.',  '.', '.', '.', '.', '.', '.'
 |  's(7)',    in_3,  '.',  '.', '.', '.', '.', '.', '.'
 |  's(7)',    in_3,  '.',  '.', '.', '.', '.', '.', '.'
 |  's(6)',     '.',  '.',  '.', '.', '.', '.', '.', '.'
 |  's(6)',     '.',  '.',  '.', '.', '.', '.', '.', '.'
 |  's(6)',     '.',  '.',  '.', '.', '.', '.', '.', '.'
 |];
register_states = 
[| local_0, '.', '.', '.', '.'
 | local_0, '.', '.', '.', '.'
 | local_0, '.', '.', '.', '.'
 | local_0, '.', '.', '.', '.'
 | local_0, '.', '.', '.', '.'
 | local_0, '.', '.', '.', '.'
 | local_0, '.', '.', '.', '.'
 | local_0, '.', '.', '.', '.'
 | local_0, '.', '.', '.', '.'
 | local_0, '.', '.', '.', '.'
 |  's(7)', '.', '.', '.', '.'
 |  's(7)', '.', '.', '.', '.'
 |  's(7)', '.', '.', '.', '.'
 |  's(7)', '.', '.', '.', '.'
 |];
program = [O('i32.add_1'), O('i32.add_2'), O('i32.load8_u_2'), POP, O('i32.load8_s_4'), O('i32.load8_s_5'), O('i32.const_0'), O('i32.add_3'), O('i32.store8_10'), TEE(TEE1), O('i32.add_0'), NOP, NOP];
% time elapsed: 0.44 s
----------
==========
% time elapsed: 0.44 s
% [value > 10]
